0_instance_selection/optil_deployment/lite/full/vc-lite_016.gr
p td 1103 1906
1 1004
1 163
1 307
1 568
1 805
1 808
1 841
1 865
1 907
1004 280
1004 295
1004 331
1004 505
1004 757
1004 787
1004 802
2 1005
2 514
2 604
1005 118
1005 253
1005 454
1005 460
1005 580
1005 784
3 1006
3 340
3 346
3 550
1006 103
1006 463
1006 877
1006 880
4 1007
4 133
4 166
4 304
4 733
4 940
4 994
1007 352
1007 679
1007 796
1007 864
5 1008
5 274
5 358
5 583
1008 130
6 1009
6 532
6 685
1009 142
1009 631
1009 727
1009 925
7 1010
7 162
7 490
7 571
7 817
1010 345
1010 531
1010 565
8 1011
8 172
8 175
8 448
8 520
8 529
8 883
1011 129
1011 148
1011 154
1011 196
9 1012
9 223
9 313
9 403
9 406
1012 124
1012 682
1012 781
1012 853
10 1013
10 379
10 442
10 736
10 976
1013 106
1013 226
1013 229
1013 979
11 1014
11 235
11 499
11 649
11 882
1014 139
1014 310
1014 493
1014 673
1014 811
1014 844
1014 964
12 1015
12 364
12 655
1015 136
1015 769
13 1016
13 441
13 810
1016 309
1016 801
14 1017
14 241
14 265
14 424
14 625
14 934
1017 405
1017 517
1017 874
15 1018
15 232
15 238
15 751
1018 190
1018 601
1018 732
1018 856
1018 928
1018 939
1018 973
16 1019
16 562
16 643
16 745
16 775
1019 268
1019 607
1019 724
1019 963
1019 970
17 1020
17 214
17 325
17 418
17 559
17 567
17 863
1020 138
1020 151
1020 161
1020 211
1020 271
1020 684
1020 969
18 1021
18 412
18 478
18 642
18 889
18 931
1021 115
1021 247
1021 586
1021 756
1021 937
19 1022
19 357
19 616
19 694
19 838
1022 715
1022 862
1022 904
1022 924
20 1023
20 459
20 475
20 624
20 637
20 672
20 766
20 898
1023 250
1023 528
1023 547
1023 790
1023 837
21 1024
21 439
21 549
21 613
21 754
21 816
21 952
1024 184
1024 324
1024 330
1024 457
1024 481
22 1025
22 199
22 400
22 967
1025 355
1025 538
1025 919
23 1026
23 220
23 363
23 402
23 654
23 706
1026 228
1026 714
1026 721
1026 826
1026 968
24 1027
24 132
24 916
1027 574
1027 582
1027 688
1027 753
1027 840
25 1028
25 114
25 270
25 879
1028 339
1028 511
1028 876
26 1029
26 127
26 193
26 385
26 397
26 772
26 955
26 975
1029 343
1029 427
1029 658
1029 667
1029 763
1029 871
1029 892
1029 933
27 1030
27 687
27 903
1030 891
1030 954
1030 961
28 1031
28 171
28 382
28 742
1031 322
1031 415
1031 739
1031 744
1031 793
29 1032
29 109
29 128
29 169
29 306
29 349
29 523
29 589
29 768
29 778
1032 135
1032 474
1032 610
1032 676
1032 843
1032 946
1032 993
30 1033
30 401
30 516
30 915
30 985
1033 373
1033 417
1033 870
31 1034
31 102
31 189
31 445
31 771
1034 123
1034 178
1034 927
32 1035
32 496
32 730
1035 404
33 1036
33 213
33 301
33 436
33 595
33 982
1036 205
1036 367
1036 519
1036 535
1036 634
1036 750
34 1037
34 187
34 256
34 376
34 835
1037 174
1037 458
1037 691
1037 765
1037 1003
35 1038
35 183
35 195
35 487
35 606
35 922
1038 181
1038 466
1038 564
1038 570
1038 579
1038 820
1038 829
36 1039
36 495
36 544
36 693
36 712
1039 208
37 1040
37 619
37 670
37 731
37 814
1040 646
1040 664
1040 1000
38 1041
38 277
38 508
38 526
38 618
38 760
38 792
38 886
1041 692
1041 697
1041 895
1041 951
39 1042
39 188
39 192
39 217
39 421
39 569
1042 252
1042 312
1042 316
1042 657
1042 902
1042 991
40 1043
40 456
40 669
40 738
40 868
1043 556
1043 759
41 1044
41 153
41 234
41 370
41 414
41 447
1044 246
1044 762
1044 981
42 1045
42 337
42 372
42 498
42 997
1045 513
1045 852
1045 885
43 1046
43 231
43 834
43 980
1046 661
1046 936
1046 988
44 1047
44 391
44 652
44 700
44 783
44 833
44 913
44 949
44 990
1047 259
1047 334
1047 546
1047 645
1047 681
45 1048
45 409
45 489
1048 134
1048 202
1048 873
1048 978
46 1049
46 165
46 273
46 605
46 633
46 948
1049 225
1049 375
1049 737
1049 825
1049 910
47 1050
47 216
47 366
47 420
47 543
1050 303
1050 305
1050 578
1050 640
1050 711
1050 832
1050 881
48 1051
48 145
48 426
48 720
1051 233
1051 311
1051 615
49 1052
49 446
49 504
49 530
49 909
1052 267
1052 321
1052 502
1052 542
1052 558
1052 566
1052 713
1052 723
1052 819
50 1053
50 308
50 371
50 390
50 541
50 630
50 859
50 923
1053 465
1053 780
1053 799
51 1054
51 101
51 294
51 399
51 435
51 473
51 492
51 525
51 548
51 824
51 828
51 847
51 858
1054 147
1054 224
1054 240
1054 286
1054 298
1054 438
1054 966
52 1055
52 361
52 663
52 807
52 958
1055 469
1055 577
1055 651
1055 696
1055 710
1055 774
53 1056
53 121
53 388
53 423
53 795
1056 204
1056 480
1056 563
1056 639
54 1057
54 416
54 440
54 453
54 479
54 503
54 573
54 585
54 671
1057 141
1057 198
1057 315
1057 758
1057 972
55 1058
55 245
55 262
55 329
55 354
55 617
55 971
1058 430
1058 472
1058 709
1058 894
56 1059
56 486
56 572
56 592
56 786
56 930
1059 351
1059 600
57 1060
57 150
57 628
57 703
57 729
57 798
57 974
1060 126
1060 160
1060 283
1060 444
1060 861
1060 901
58 1061
58 452
1061 369
59 1062
59 255
59 622
59 782
59 818
1062 207
1062 394
1062 451
1062 576
1062 603
1062 823
60 1063
60 137
60 157
60 726
60 785
1063 249
1063 553
1063 708
61 1064
61 598
61 831
1064 320
1064 477
1064 599
1064 627
1064 741
62 1065
62 219
62 644
1065 293
1065 471
1065 524
1065 527
1065 842
63 1066
63 112
63 356
63 396
63 510
63 897
1066 159
1066 314
1066 434
1066 468
1066 497
1066 926
64 1067
64 111
64 177
64 609
64 773
64 789
64 851
64 867
1067 384
1067 387
1067 411
1067 476
1067 648
1067 722
1067 764
65 1068
65 218
65 360
65 656
65 699
65 855
1068 201
1068 239
1068 540
1068 860
1068 908
66 1069
66 251
66 425
66 534
66 777
66 872
1069 319
1069 683
1069 960
67 1070
67 164
67 318
67 350
67 433
67 450
67 900
67 957
1070 108
1070 292
1070 594
1070 597
1070 608
1070 612
1070 822
1070 918
1070 943
68 1071
68 342
68 791
68 850
68 959
68 984
1071 144
1071 386
1071 794
1071 896
69 1072
69 282
69 381
1072 168
1072 398
1072 614
1072 632
1072 705
1072 942
70 1073
70 180
70 522
70 636
70 755
1073 200
1073 227
1073 437
1073 641
1073 718
71 1074
71 167
71 179
71 374
71 552
1074 408
1074 588
1074 748
1074 869
72 1075
72 300
72 419
72 484
72 596
1075 359
1075 635
1075 761
1075 906
73 1076
73 561
73 660
73 917
1076 291
1076 945
1076 983
74 1077
74 248
74 813
1077 120
1077 264
1077 276
1077 289
1077 611
1077 702
1077 747
1077 890
75 1078
75 156
75 186
75 222
75 237
75 443
1078 122
1078 197
1078 341
1078 407
1078 432
1078 987
76 1079
76 488
76 690
1079 288
1079 992
77 1080
77 140
77 143
77 395
77 455
77 776
1080 244
1080 333
1080 678
1080 717
1080 725
1080 735
1080 884
1080 888
1080 938
1080 947
78 1081
78 173
78 266
78 299
78 932
1081 378
1081 483
1081 638
1081 929
1081 989
79 1082
79 621
79 653
1082 149
1082 176
1082 704
1082 854
1082 905
80 1083
80 212
80 258
80 380
80 485
80 620
80 677
1083 261
1083 348
1083 591
1083 743
1083 846
1083 899
1083 996
81 1084
81 347
81 746
81 779
81 887
1084 131
1084 584
1084 587
1084 695
1084 893
82 1085
82 281
82 344
82 410
82 507
82 539
82 719
1085 146
1085 243
1085 279
1085 521
1085 1002
83 1086
83 285
83 338
83 602
83 912
83 965
83 999
1086 260
1086 449
1086 506
1086 555
1086 701
1086 749
1086 935
84 1087
84 389
84 581
84 728
1087 297
1087 875
85 1088
85 467
85 666
85 944
1088 290
1088 332
1088 512
86 1089
86 921
1089 383
87 1090
87 105
87 269
87 275
87 593
87 675
1090 287
1090 413
1090 462
1090 537
1090 836
1090 1001
88 1091
88 353
88 501
88 515
88 557
88 647
88 767
1091 104
1091 221
1091 254
1091 336
1091 560
1091 650
1091 950
1091 977
89 1092
89 185
89 362
89 393
89 533
89 674
89 998
1092 158
1092 230
1092 302
1092 554
1092 629
1092 809
1092 827
90 1093
90 317
90 392
90 518
90 698
90 707
90 920
1093 113
1093 734
1093 770
1093 986
91 1094
91 429
91 797
91 806
91 878
1094 194
1094 328
1094 335
1094 494
1094 659
1094 665
1094 804
92 1095
92 210
92 545
92 845
1095 278
1095 327
1095 812
93 1096
93 326
93 365
93 662
93 800
1096 125
1096 155
1096 170
1096 623
1096 752
94 1097
94 368
94 500
94 509
94 668
94 849
1097 209
1097 590
1097 686
95 1098
95 215
95 716
95 857
1098 242
1098 296
1098 848
96 1099
96 110
96 263
96 377
96 461
96 491
96 830
1099 119
1099 152
1099 182
1099 551
1099 575
97 1100
97 107
97 117
97 323
97 689
97 803
1100 428
1100 914
1100 962
98 1101
98 272
98 431
98 536
98 821
1101 116
1101 203
1101 911
1101 956
99 1102
99 191
99 236
99 740
1102 257
1102 470
1102 815
1102 839
100 1103
100 284
100 422
100 680
100 995
1103 206
1103 464
1103 482
1103 626
1103 788
1103 866
1103 941
1103 953
101 102
101 103
102 103
104 105
104 106
105 106
107 108
107 109
108 109
110 111
110 112
111 112
113 114
113 115
114 115
116 117
116 118
117 118
119 120
119 121
120 121
122 123
122 124
123 124
125 126
125 127
126 127
128 129
128 130
129 130
131 132
131 133
132 133
134 135
134 136
135 136
137 138
137 139
138 139
140 141
140 142
141 142
143 144
143 145
144 145
146 147
146 148
147 148
149 150
149 151
150 151
152 153
152 154
153 154
155 156
155 157
156 157
158 159
158 160
159 160
161 162
161 163
162 163
164 165
164 166
165 166
167 168
167 169
168 169
170 171
170 172
171 172
173 174
173 175
174 175
176 177
176 178
177 178
179 180
179 181
180 181
182 183
182 184
183 184
185 186
185 187
186 187
188 189
188 190
189 190
191 192
191 193
192 193
194 195
194 196
195 196
197 198
197 199
198 199
200 201
200 202
201 202
203 204
203 205
204 205
206 207
206 208
207 208
209 210
209 211
210 211
212 213
212 214
213 214
215 216
215 217
216 217
218 219
218 220
219 220
221 222
221 223
222 223
224 225
224 226
225 226
227 228
227 229
228 229
230 231
230 232
231 232
233 234
233 235
234 235
236 237
236 238
237 238
239 240
239 241
240 241
242 243
242 244
243 244
245 246
245 247
246 247
248 249
248 250
249 250
251 252
251 253
252 253
254 255
254 256
255 256
257 258
257 259
258 259
260 261
260 262
261 262
263 264
263 265
264 265
266 267
266 268
267 268
269 270
269 271
270 271
272 273
272 274
273 274
275 276
275 277
276 277
278 279
278 280
279 280
281 282
281 283
282 283
284 285
284 286
285 286
287 288
287 289
288 289
290 291
290 292
291 292
293 294
293 295
294 295
296 297
296 298
297 298
299 300
299 301
300 301
302 303
302 304
303 304
305 306
305 307
306 307
308 309
308 310
309 310
311 312
311 313
312 313
314 315
314 316
315 316
317 318
317 319
318 319
320 321
320 322
321 322
323 324
323 325
324 325
326 327
326 328
327 328
329 330
329 331
330 331
332 333
332 334
333 334
335 336
335 337
336 337
338 339
338 340
339 340
341 342
341 343
342 343
344 345
344 346
345 346
347 348
347 349
348 349
350 351
350 352
351 352
353 354
353 355
354 355
356 357
356 358
357 358
359 360
359 361
360 361
362 363
362 364
363 364
365 366
365 367
366 367
368 369
368 370
369 370
371 372
371 373
372 373
374 375
374 376
375 376
377 378
377 379
378 379
380 381
380 382
381 382
383 384
383 385
384 385
386 387
386 388
387 388
389 390
389 391
390 391
392 393
392 394
393 394
395 396
395 397
396 397
398 399
398 400
399 400
401 402
401 403
402 403
404 405
404 406
405 406
407 408
407 409
408 409
410 411
410 412
411 412
413 414
413 415
414 415
416 417
416 418
417 418
419 420
419 421
420 421
422 423
422 424
423 424
425 426
425 427
426 427
428 429
428 430
429 430
431 432
431 433
432 433
434 435
434 436
435 436
437 438
437 439
438 439
440 441
440 442
441 442
443 444
443 445
444 445
446 447
446 448
447 448
449 450
449 451
450 451
452 453
452 454
453 454
455 456
455 457
456 457
458 459
458 460
459 460
461 462
461 463
462 463
464 465
464 466
465 466
467 468
467 469
468 469
470 471
470 472
471 472
473 474
473 475
474 475
476 477
476 478
477 478
479 480
479 481
480 481
482 483
482 484
483 484
485 486
485 487
486 487
488 489
488 490
489 490
491 492
491 493
492 493
494 495
494 496
495 496
497 498
497 499
498 499
500 501
500 502
501 502
503 504
503 505
504 505
506 507
506 508
507 508
509 510
509 511
510 511
512 513
512 514
513 514
515 516
515 517
516 517
518 519
518 520
519 520
521 522
521 523
522 523
524 525
524 526
525 526
527 528
527 529
528 529
530 531
530 532
531 532
533 534
533 535
534 535
536 537
536 538
537 538
539 540
539 541
540 541
542 543
542 544
543 544
545 546
545 547
546 547
548 549
548 550
549 550
551 552
551 553
552 553
554 555
554 556
555 556
557 558
557 559
558 559
560 561
560 562
561 562
563 564
563 565
564 565
566 567
566 568
567 568
569 570
569 571
570 571
572 573
572 574
573 574
575 576
575 577
576 577
578 579
578 580
579 580
581 582
581 583
582 583
584 585
584 586
585 586
587 588
587 589
588 589
590 591
590 592
591 592
593 594
593 595
594 595
596 597
596 598
597 598
599 600
599 601
600 601
602 603
602 604
603 604
605 606
605 607
606 607
608 609
608 610
609 610
611 612
611 613
612 613
614 615
614 616
615 616
617 618
617 619
618 619
620 621
620 622
621 622
623 624
623 625
624 625
626 627
626 628
627 628
629 630
629 631
630 631
632 633
632 634
633 634
635 636
635 637
636 637
638 639
638 640
639 640
641 642
641 643
642 643
644 645
644 646
645 646
647 648
647 649
648 649
650 651
650 652
651 652
653 654
653 655
654 655
656 657
656 658
657 658
659 660
659 661
660 661
662 663
662 664
663 664
665 666
665 667
666 667
668 669
668 670
669 670
671 672
671 673
672 673
674 675
674 676
675 676
677 678
677 679
678 679
680 681
680 682
681 682
683 684
683 685
684 685
686 687
686 688
687 688
689 690
689 691
690 691
692 693
692 694
693 694
695 696
695 697
696 697
698 699
698 700
699 700
701 702
701 703
702 703
704 705
704 706
705 706
707 708
707 709
708 709
710 711
710 712
711 712
713 714
713 715
714 715
716 717
716 718
717 718
719 720
719 721
720 721
722 723
722 724
723 724
725 726
725 727
726 727
728 729
728 730
729 730
731 732
731 733
732 733
734 735
734 736
735 736
737 738
737 739
738 739
740 741
740 742
741 742
743 744
743 745
744 745
746 747
746 748
747 748
749 750
749 751
750 751
752 753
752 754
753 754
755 756
755 757
756 757
758 759
758 760
759 760
761 762
761 763
762 763
764 765
764 766
765 766
767 768
767 769
768 769
770 771
770 772
771 772
773 774
773 775
774 775
776 777
776 778
777 778
779 780
779 781
780 781
782 783
782 784
783 784
785 786
785 787
786 787
788 789
788 790
789 790
791 792
791 793
792 793
794 795
794 796
795 796
797 798
797 799
798 799
800 801
800 802
801 802
803 804
803 805
804 805
806 807
806 808
807 808
809 810
809 811
810 811
812 813
812 814
813 814
815 816
815 817
816 817
818 819
818 820
819 820
821 822
821 823
822 823
824 825
824 826
825 826
827 828
827 829
828 829
830 831
830 832
831 832
833 834
833 835
834 835
836 837
836 838
837 838
839 840
839 841
840 841
842 843
842 844
843 844
845 846
845 847
846 847
848 849
848 850
849 850
851 852
851 853
852 853
854 855
854 856
855 856
857 858
857 859
858 859
860 861
860 862
861 862
863 864
863 865
864 865
866 867
866 868
867 868
869 870
869 871
870 871
872 873
872 874
873 874
875 876
875 877
876 877
878 879
878 880
879 880
881 882
881 883
882 883
884 885
884 886
885 886
887 888
887 889
888 889
890 891
890 892
891 892
893 894
893 895
894 895
896 897
896 898
897 898
899 900
899 901
900 901
902 903
902 904
903 904
905 906
905 907
906 907
908 909
908 910
909 910
911 912
911 913
912 913
914 915
914 916
915 916
917 918
917 919
918 919
920 921
920 922
921 922
923 924
923 925
924 925
926 927
926 928
927 928
929 930
929 931
930 931
932 933
932 934
933 934
935 936
935 937
936 937
938 939
938 940
939 940
941 942
941 943
942 943
944 945
944 946
945 946
947 948
947 949
948 949
950 951
950 952
951 952
953 954
953 955
954 955
956 957
956 958
957 958
959 960
959 961
960 961
962 963
962 964
963 964
965 966
965 967
966 967
968 969
968 970
969 970
971 972
971 973
972 973
974 975
974 976
975 976
977 978
977 979
978 979
980 981
980 982
981 982
983 984
983 985
984 985
986 987
986 988
987 988
989 990
989 991
990 991
992 993
992 994
993 994
995 996
995 997
996 997
998 999
998 1000
999 1000
1001 1002
1001 1003
1002 1003
