0_instance_selection/optil_deployment/lite/optil/private/vc-lite_016.out
s vc 1103 702
5
6
7
10
12
13
14
16
17
21
24
30
31
35
36
39
40
42
44
49
50
51
55
56
59
60
62
63
65
66
67
70
72
73
75
76
78
80
81
82
83
84
87
88
90
91
97
98
101
102
104
106
108
109
110
111
113
114
116
118
119
121
122
123
125
127
128
130
131
133
135
136
137
138
140
142
143
145
146
147
150
151
152
153
155
156
158
159
161
163
165
166
167
169
171
172
173
175
177
178
179
181
182
184
185
187
189
190
191
193
194
195
197
199
200
201
203
205
207
208
210
211
212
213
215
216
218
220
221
223
224
226
227
229
231
232
234
235
236
238
239
240
242
243
245
246
248
249
251
252
254
256
258
259
260
261
263
265
267
268
270
271
272
273
275
277
278
279
281
282
284
286
287
288
291
292
293
294
297
298
299
301
302
304
306
307
308
309
312
313
314
316
318
319
321
322
324
325
326
328
329
330
332
334
335
336
338
340
341
342
345
346
348
349
350
351
353
354
356
357
359
361
362
363
365
366
368
370
371
373
374
376
377
378
381
382
384
385
386
388
389
390
393
394
395
397
399
400
402
403
405
406
407
409
410
412
413
414
416
417
419
420
422
423
425
426
428
430
432
433
434
436
437
438
440
442
443
445
447
448
449
451
452
453
455
457
458
459
461
462
465
466
467
468
471
472
473
475
477
478
479
481
482
483
485
487
489
490
491
492
494
496
497
499
500
502
503
504
506
508
509
510
513
514
515
517
519
520
521
523
524
526
527
529
530
531
533
535
536
537
540
541
542
543
545
546
548
550
552
553
555
556
558
559
560
561
564
565
566
568
570
571
573
574
576
577
579
580
581
582
584
585
587
589
590
591
594
595
597
598
599
600
603
604
605
607
608
609
611
612
615
616
618
619
620
621
623
624
627
628
630
631
633
634
635
637
638
639
641
642
645
646
647
649
650
651
653
654
657
658
659
661
662
663
665
666
668
670
671
672
674
675
677
678
680
681
683
684
687
688
690
691
692
694
695
696
698
699
701
703
704
706
708
709
710
711
713
714
716
718
719
720
723
724
726
727
729
730
731
733
734
736
737
738
740
742
743
744
746
747
749
751
752
753
755
756
759
760
761
762
764
766
768
769
770
772
773
774
776
778
779
780
782
784
785
787
788
789
791
792
794
795
798
799
800
801
804
805
807
808
809
811
813
814
815
816
819
820
822
823
824
825
827
829
830
831
834
835
836
838
840
841
842
843
845
846
849
850
851
852
854
855
857
858
860
861
863
865
866
867
869
870
872
874
875
876
878
879
882
883
885
886
887
889
890
892
893
894
896
898
899
900
902
903
906
907
908
909
911
912
914
915
917
918
921
922
923
925
926
927
929
931
932
934
935
936
938
940
941
943
944
945
947
948
950
951
953
955
956
958
959
960
962
963
966
967
969
970
971
973
974
975
977
979
980
982
983
984
986
987
989
991
992
994
995
996
998
1000
1001
1002
1004
1005
1006
1007
1011
1012
1014
1018
1021
1022
1023
1025
1026
1028
1029
1030
1031
1032
1035
1036
1037
1040
1041
1044
1046
1048
1049
1050
1051
1055
1056
1057
1060
1061
1064
1067
1071
1072
1074
1077
1080
1082
1088
1089
1092
1095
1096
1097
1098
1099
1102
1103
